<?xml version = "1.0" encoding="UTF-8" standalone="yes"?>
<CPLEXSolution version="1.2">
 <header
   problemName="ILOG.CPLEX"
   solutionName="incumbent"
   solutionIndex="-1"
   objectiveValue="3"
   solutionTypeValue="3"
   solutionTypeString="primal"
   solutionStatusValue="101"
   solutionStatusString="integer optimal solution"
   solutionMethodString="mip"
   primalFeasible="1"
   dualFeasible="1"
   MIPNodes="0"
   MIPIterations="12"
   writeLevel="1"/>
 <quality
   epInt="1.0000000000000001e-05"
   epRHS="9.9999999999999995e-07"
   maxIntInfeas="0"
   maxPrimalInfeas="8.8817841970012523e-16"
   maxX="1"
   maxSlack="1670.6499999999999"/>
 <linearConstraints>
  <constraint name="C1_0" index="0" slack="0"/>
  <constraint name="C1_1" index="1" slack="0"/>
  <constraint name="C1_2" index="2" slack="0"/>
  <constraint name="C1_3" index="3" slack="0"/>
  <constraint name="C1_4" index="4" slack="0"/>
  <constraint name="2_0_0_0_1" index="5" slack="-6.7489999999999988"/>
  <constraint name="2_0_0_0_2" index="6" slack="-6.8869999999999987"/>
  <constraint name="2_0_0_0_3" index="7" slack="-8.1086666666666662"/>
  <constraint name="2_0_0_0_4" index="8" slack="-7.0263333333333327"/>
  <constraint name="2_0_0_1_1" index="9" slack="-5.8620000000000001"/>
  <constraint name="2_0_0_1_2" index="10" slack="-3.2883333333333336"/>
  <constraint name="2_0_0_1_3" index="11" slack="-10.339333333333332"/>
  <constraint name="2_0_1_0_1" index="12" slack="-6.7489999999999988"/>
  <constraint name="2_0_1_0_2" index="13" slack="-6.8869999999999987"/>
  <constraint name="2_0_1_0_3" index="14" slack="-8.1086666666666662"/>
  <constraint name="2_0_1_0_4" index="15" slack="-7.0263333333333327"/>
  <constraint name="2_0_1_1_1" index="16" slack="-3.4379999999999993"/>
  <constraint name="2_0_1_1_2" index="17" slack="-6.7263333333333328"/>
  <constraint name="2_0_1_1_3" index="18" slack="-11.777333333333335"/>
  <constraint name="2_0_2_0_1" index="19" slack="-5.8620000000000001"/>
  <constraint name="2_0_2_0_2" index="20" slack="-3.2883333333333336"/>
  <constraint name="2_0_2_0_3" index="21" slack="-9.3130000000000006"/>
  <constraint name="2_0_2_0_4" index="22" slack="-10.339333333333332"/>
  <constraint name="2_0_2_1_1" index="23" slack="-6.7489999999999988"/>
  <constraint name="2_0_3_0_1" index="24" slack="-1.2109999999999994"/>
  <constraint name="2_0_3_0_2" index="25" slack="-0.254"/>
  <constraint name="2_0_3_0_3" index="26" slack="-1.2119999999999997"/>
  <constraint name="2_0_3_0_4" index="27" slack="-2.4050000000000002"/>
  <constraint name="2_0_3_1_1" index="28" slack="0"/>
  <constraint name="2_0_4_0_1" index="29" slack="-3.4379999999999993"/>
  <constraint name="2_0_4_0_2" index="30" slack="-6.7263333333333328"/>
  <constraint name="2_0_4_0_3" index="31" slack="-6.7509999999999994"/>
  <constraint name="2_0_4_0_4" index="32" slack="-11.777333333333335"/>
  <constraint name="2_0_4_1_1" index="33" slack="-6.8869999999999987"/>
  <constraint name="2_0_4_1_2" index="34" slack="-8.1086666666666662"/>
  <constraint name="2_0_4_1_3" index="35" slack="-7.0263333333333327"/>
  <constraint name="2_0_5_0_1" index="36" slack="-3.4379999999999993"/>
  <constraint name="2_0_5_0_2" index="37" slack="-6.7263333333333328"/>
  <constraint name="2_0_5_0_3" index="38" slack="-6.7509999999999994"/>
  <constraint name="2_0_5_0_4" index="39" slack="-11.777333333333335"/>
  <constraint name="2_0_5_1_1" index="40" slack="-3.2883333333333336"/>
  <constraint name="2_0_5_1_2" index="41" slack="-9.3130000000000006"/>
  <constraint name="2_0_5_1_3" index="42" slack="-10.339333333333332"/>
  <constraint name="2_1_0_0_1" index="43" slack="-6.7489999999999988"/>
  <constraint name="2_1_0_0_2" index="44" slack="-9.0249999999999986"/>
  <constraint name="2_1_0_0_3" index="45" slack="-9.0249999999999986"/>
  <constraint name="2_1_0_0_4" index="46" slack="-7.1923333333333312"/>
  <constraint name="2_1_0_0_5" index="47" slack="0"/>
  <constraint name="2_1_0_0_6" index="48" slack="-4.8883333333333336"/>
  <constraint name="2_1_0_1_1" index="49" slack="-9.7240000000000002"/>
  <constraint name="2_1_0_1_2" index="50" slack="0"/>
  <constraint name="2_1_0_1_3" index="51" slack="-4.0006666666666666"/>
  <constraint name="2_1_0_1_4" index="52" slack="-11.975000000000001"/>
  <constraint name="2_1_0_1_5" index="53" slack="-12.863333333333333"/>
  <constraint name="2_1_0_2_1" index="54" slack="0"/>
  <constraint name="2_1_1_0_1" index="55" slack="-6.7489999999999988"/>
  <constraint name="2_1_1_0_2" index="56" slack="-9.0249999999999986"/>
  <constraint name="2_1_1_0_3" index="57" slack="-9.0249999999999986"/>
  <constraint name="2_1_1_0_4" index="58" slack="-7.1923333333333312"/>
  <constraint name="2_1_1_0_5" index="59" slack="0"/>
  <constraint name="2_1_1_0_6" index="60" slack="-4.8883333333333336"/>
  <constraint name="2_1_1_1_1" index="61" slack="-6.7759999999999998"/>
  <constraint name="2_1_1_1_2" index="62" slack="-6.7759999999999998"/>
  <constraint name="2_1_1_1_3" index="63" slack="-6.7766666666666664"/>
  <constraint name="2_1_1_1_4" index="64" slack="-6.7509999999999994"/>
  <constraint name="2_1_1_1_5" index="65" slack="-11.639333333333333"/>
  <constraint name="2_1_1_2_1" index="66" slack="0"/>
  <constraint name="2_1_1_2_2" index="67" slack="-4.0006666666666666"/>
  <constraint name="2_1_1_2_3" index="68" slack="-11.975000000000001"/>
  <constraint name="2_1_1_2_4" index="69" slack="-12.863333333333333"/>
  <constraint name="2_1_2_0_1" index="70" slack="-9.7240000000000002"/>
  <constraint name="2_1_2_0_2" index="71" slack="0"/>
  <constraint name="2_1_2_0_3" index="72" slack="-4.0006666666666666"/>
  <constraint name="2_1_2_0_4" index="73" slack="-11.975000000000001"/>
  <constraint name="2_1_2_0_5" index="74" slack="-11.975000000000001"/>
  <constraint name="2_1_2_0_6" index="75" slack="-12.863333333333333"/>
  <constraint name="2_1_2_1_1" index="76" slack="-6.7489999999999988"/>
  <constraint name="2_1_2_1_2" index="77" slack="0"/>
  <constraint name="2_1_2_1_3" index="78" slack="-4.8883333333333336"/>
  <constraint name="2_1_2_2_1" index="79" slack="-6.7509999999999994"/>
  <constraint name="2_1_3_0_1" index="80" slack="-9.7240000000000002"/>
  <constraint name="2_1_3_0_2" index="81" slack="0"/>
  <constraint name="2_1_3_0_3" index="82" slack="-4.0006666666666666"/>
  <constraint name="2_1_3_0_4" index="83" slack="-11.975000000000001"/>
  <constraint name="2_1_3_0_5" index="84" slack="-11.975000000000001"/>
  <constraint name="2_1_3_0_6" index="85" slack="-12.863333333333333"/>
  <constraint name="2_1_3_1_1" index="86" slack="-6.7509999999999994"/>
  <constraint name="2_1_3_1_2" index="87" slack="-6.7509999999999994"/>
  <constraint name="2_1_3_1_3" index="88" slack="-11.639333333333333"/>
  <constraint name="2_1_3_2_1" index="89" slack="0"/>
  <constraint name="2_1_4_0_1" index="90" slack="-6.7759999999999998"/>
  <constraint name="2_1_4_0_2" index="91" slack="-6.7759999999999998"/>
  <constraint name="2_1_4_0_3" index="92" slack="-6.7766666666666664"/>
  <constraint name="2_1_4_0_4" index="93" slack="-6.7509999999999994"/>
  <constraint name="2_1_4_0_5" index="94" slack="-6.7509999999999994"/>
  <constraint name="2_1_4_0_6" index="95" slack="-11.639333333333333"/>
  <constraint name="2_1_4_1_1" index="96" slack="-9.0249999999999986"/>
  <constraint name="2_1_4_1_2" index="97" slack="-9.0249999999999986"/>
  <constraint name="2_1_4_1_3" index="98" slack="-7.1923333333333312"/>
  <constraint name="2_1_4_1_4" index="99" slack="0"/>
  <constraint name="2_1_4_1_5" index="100" slack="-4.8883333333333336"/>
  <constraint name="2_1_4_2_1" index="101" slack="0"/>
  <constraint name="2_1_4_2_2" index="102" slack="-4.0006666666666666"/>
  <constraint name="2_1_4_2_3" index="103" slack="-11.975000000000001"/>
  <constraint name="2_1_4_2_4" index="104" slack="-12.863333333333333"/>
  <constraint name="2_1_5_0_1" index="105" slack="-6.7759999999999998"/>
  <constraint name="2_1_5_0_2" index="106" slack="-6.7759999999999998"/>
  <constraint name="2_1_5_0_3" index="107" slack="-6.7766666666666664"/>
  <constraint name="2_1_5_0_4" index="108" slack="-6.7509999999999994"/>
  <constraint name="2_1_5_0_5" index="109" slack="-6.7509999999999994"/>
  <constraint name="2_1_5_0_6" index="110" slack="-11.639333333333333"/>
  <constraint name="2_1_5_1_1" index="111" slack="0"/>
  <constraint name="2_1_5_1_2" index="112" slack="-4.0006666666666666"/>
  <constraint name="2_1_5_1_3" index="113" slack="-11.975000000000001"/>
  <constraint name="2_1_5_1_4" index="114" slack="-11.975000000000001"/>
  <constraint name="2_1_5_1_5" index="115" slack="-12.863333333333333"/>
  <constraint name="2_1_5_2_1" index="116" slack="0"/>
  <constraint name="2_2_0_0_1" index="117" slack="-365.73333333333335"/>
  <constraint name="2_2_0_0_2" index="118" slack="-1331.3"/>
  <constraint name="2_2_0_0_3" index="119" slack="0"/>
  <constraint name="2_2_0_0_4" index="120" slack="-1255.1999999999998"/>
  <constraint name="2_2_0_0_5" index="121" slack="-1230.7333333333333"/>
  <constraint name="2_2_0_0_6" index="122" slack="-1183.3"/>
  <constraint name="2_2_0_1_1" index="123" slack="-33.907333333333327"/>
  <constraint name="2_2_0_1_2" index="124" slack="-169.67399999999998"/>
  <constraint name="2_2_0_1_3" index="125" slack="-224.87400000000005"/>
  <constraint name="2_2_0_1_4" index="126" slack="-299.95733333333339"/>
  <constraint name="2_2_0_1_5" index="127" slack="-450.87400000000008"/>
  <constraint name="2_2_1_0_1" index="128" slack="-1034.4333333333334"/>
  <constraint name="2_2_1_0_2" index="129" slack="-1670.6499999999999"/>
  <constraint name="2_2_1_0_3" index="130" slack="-1670.6499999999999"/>
  <constraint name="2_2_1_0_4" index="131" slack="-525.85000000000002"/>
  <constraint name="2_2_1_0_5" index="132" slack="-701.38333333333344"/>
  <constraint name="2_2_1_0_6" index="133" slack="-1053.95"/>
  <constraint name="2_2_1_1_1" index="134" slack="0"/>
  <constraint name="2_3_0_0_1" index="135" slack="-4.0543333333333331"/>
  <constraint name="2_3_0_0_2" index="136" slack="-9.4139999999999997"/>
  <constraint name="2_3_0_0_3" index="137" slack="-3.8883333333333336"/>
  <constraint name="2_3_0_1_1" index="138" slack="-5.0006666666666666"/>
  <constraint name="2_3_1_0_1" index="139" slack="-0.52799999999999958"/>
  <constraint name="2_3_1_0_2" index="140" slack="-0.94199999999999928"/>
  <constraint name="2_3_1_0_3" index="141" slack="-1.5830000000000002"/>
  <constraint name="2_4_0_0_1" index="142" slack="-7.7766666666666655"/>
  <constraint name="2_4_0_0_2" index="143" slack="-11.363"/>
  <constraint name="2_4_0_0_3" index="144" slack="-6.6929999999999987"/>
  <constraint name="2_4_0_0_4" index="145" slack="-13.527000000000001"/>
  <constraint name="2_4_0_0_5" index="146" slack="-5.8869999999999987"/>
  <constraint name="2_4_0_0_6" index="147" slack="-6.6929999999999987"/>
  <constraint name="2_4_0_1_1" index="148" slack="-12.889666666666667"/>
  <constraint name="2_4_0_1_2" index="149" slack="-6.5259999999999998"/>
  <constraint name="2_4_0_1_3" index="150" slack="-9.8059999999999992"/>
  <constraint name="2_4_0_1_4" index="151" slack="-18.640000000000001"/>
  <constraint name="2_4_0_1_5" index="152" slack="-9.8059999999999992"/>
  <constraint name="2_4_0_2_1" index="153" slack="-14.363666666666667"/>
  <constraint name="2_4_0_2_2" index="154" slack="-11.280000000000001"/>
  <constraint name="2_4_0_2_3" index="155" slack="-20.113999999999997"/>
  <constraint name="2_4_0_2_4" index="156" slack="-11.280000000000001"/>
  <constraint name="2_4_1_0_1" index="157" slack="-7.7766666666666655"/>
  <constraint name="2_4_1_0_2" index="158" slack="-11.363"/>
  <constraint name="2_4_1_0_3" index="159" slack="-6.6929999999999987"/>
  <constraint name="2_4_1_0_4" index="160" slack="-13.527000000000001"/>
  <constraint name="2_4_1_0_5" index="161" slack="-5.8869999999999987"/>
  <constraint name="2_4_1_0_6" index="162" slack="-6.6929999999999987"/>
  <constraint name="2_4_1_1_1" index="163" slack="-14.363666666666667"/>
  <constraint name="2_4_1_1_2" index="164" slack="-11.280000000000001"/>
  <constraint name="2_4_1_1_3" index="165" slack="-20.113999999999997"/>
  <constraint name="2_4_1_1_4" index="166" slack="-6.5239999999999991"/>
  <constraint name="2_4_1_1_5" index="167" slack="-11.280000000000001"/>
  <constraint name="2_4_2_0_1" index="168" slack="-12.889666666666667"/>
  <constraint name="2_4_2_0_2" index="169" slack="-6.5259999999999998"/>
  <constraint name="2_4_2_0_3" index="170" slack="-9.8059999999999992"/>
  <constraint name="2_4_2_0_4" index="171" slack="-18.640000000000001"/>
  <constraint name="2_4_2_0_5" index="172" slack="-9.1129999999999995"/>
  <constraint name="2_4_2_0_6" index="173" slack="-9.8059999999999992"/>
  <constraint name="2_4_2_1_1" index="174" slack="-7.7766666666666655"/>
  <constraint name="2_4_2_1_2" index="175" slack="-11.363"/>
  <constraint name="2_4_2_1_3" index="176" slack="-6.6929999999999987"/>
  <constraint name="2_4_2_1_4" index="177" slack="-13.527000000000001"/>
  <constraint name="2_4_2_1_5" index="178" slack="-6.6929999999999987"/>
  <constraint name="2_4_2_2_1" index="179" slack="-14.363666666666667"/>
  <constraint name="2_4_2_2_2" index="180" slack="-11.280000000000001"/>
  <constraint name="2_4_2_2_3" index="181" slack="-20.113999999999997"/>
  <constraint name="2_4_2_2_4" index="182" slack="-11.280000000000001"/>
  <constraint name="2_4_3_0_1" index="183" slack="-3.8886666666666674"/>
  <constraint name="2_4_3_0_2" index="184" slack="8.8817841970012523e-16"/>
  <constraint name="2_4_3_0_3" index="185" slack="-2.7216666666666667"/>
  <constraint name="2_4_3_0_4" index="186" slack="-6.3890000000000011"/>
  <constraint name="2_4_3_0_5" index="187" slack="-1.6119999999999992"/>
  <constraint name="2_4_3_0_6" index="188" slack="-2.7216666666666667"/>
  <constraint name="2_4_3_1_1" index="189" slack="-3.8876666666666679"/>
  <constraint name="2_4_3_1_2" index="190" slack="-2.7206666666666672"/>
  <constraint name="2_4_3_1_3" index="191" slack="-6.3880000000000017"/>
  <constraint name="2_4_3_1_4" index="192" slack="-1.6110000000000024"/>
  <constraint name="2_4_3_1_5" index="193" slack="-2.7206666666666672"/>
  <constraint name="2_4_4_0_1" index="194" slack="-14.363666666666667"/>
  <constraint name="2_4_4_0_2" index="195" slack="-11.280000000000001"/>
  <constraint name="2_4_4_0_3" index="196" slack="-20.113999999999997"/>
  <constraint name="2_4_4_0_4" index="197" slack="-6.5239999999999991"/>
  <constraint name="2_4_4_0_5" index="198" slack="-14.587"/>
  <constraint name="2_4_4_0_6" index="199" slack="-11.280000000000001"/>
  <constraint name="2_4_4_1_1" index="200" slack="-7.7766666666666655"/>
  <constraint name="2_4_4_1_2" index="201" slack="-6.6929999999999987"/>
  <constraint name="2_4_4_1_3" index="202" slack="-13.527000000000001"/>
  <constraint name="2_4_4_1_4" index="203" slack="-5.8869999999999987"/>
  <constraint name="2_4_4_1_5" index="204" slack="-6.6929999999999987"/>
  <constraint name="2_4_5_0_1" index="205" slack="-14.363666666666667"/>
  <constraint name="2_4_5_0_2" index="206" slack="-11.280000000000001"/>
  <constraint name="2_4_5_0_3" index="207" slack="-20.113999999999997"/>
  <constraint name="2_4_5_0_4" index="208" slack="-6.5239999999999991"/>
  <constraint name="2_4_5_0_5" index="209" slack="-14.587"/>
  <constraint name="2_4_5_0_6" index="210" slack="-11.280000000000001"/>
  <constraint name="2_4_5_1_1" index="211" slack="-12.889666666666667"/>
  <constraint name="2_4_5_1_2" index="212" slack="-9.8059999999999992"/>
  <constraint name="2_4_5_1_3" index="213" slack="-18.640000000000001"/>
  <constraint name="2_4_5_1_4" index="214" slack="-9.1129999999999995"/>
  <constraint name="2_4_5_1_5" index="215" slack="-9.8059999999999992"/>
  <constraint name="c217" index="216" slack="-1.1116666666666668"/>
  <constraint name="c218" index="217" slack="-0.88833333333333331"/>
  <constraint name="c219" index="218" slack="-0.24966666666666659"/>
  <constraint name="c220" index="219" slack="-1.7503333333333333"/>
  <constraint name="c221" index="220" slack="-2"/>
  <constraint name="c222" index="221" slack="0"/>
  <constraint name="c223" index="222" slack="-2"/>
  <constraint name="c224" index="223" slack="0"/>
  <constraint name="c225" index="224" slack="-2"/>
  <constraint name="c226" index="225" slack="0"/>
 </linearConstraints>
 <variables>
  <variable name="gamma_2_5_0" index="0" value="-0"/>
  <variable name="gamma_2_5_1" index="1" value="-0"/>
  <variable name="gamma_2_5_2" index="2" value="0"/>
  <variable name="gamma_2_4_0" index="3" value="-0"/>
  <variable name="gamma_2_4_1" index="4" value="-0"/>
  <variable name="gamma_2_4_2" index="5" value="0"/>
  <variable name="gamma_2_3_0" index="6" value="-0"/>
  <variable name="gamma_2_3_1" index="7" value="-0"/>
  <variable name="gamma_2_3_2" index="8" value="0"/>
  <variable name="gamma_2_2_0" index="9" value="-0"/>
  <variable name="gamma_2_2_1" index="10" value="-0"/>
  <variable name="gamma_2_2_2" index="11" value="0"/>
  <variable name="gamma_2_1_0" index="12" value="-0"/>
  <variable name="gamma_2_1_1" index="13" value="-0"/>
  <variable name="gamma_2_1_2" index="14" value="0"/>
  <variable name="gamma_2_0_0" index="15" value="-0"/>
  <variable name="gamma_2_0_1" index="16" value="-0"/>
  <variable name="gamma_2_0_2" index="17" value="0"/>
  <variable name="gamma_4_5_0" index="18" value="1"/>
  <variable name="gamma_4_5_1" index="19" value="1"/>
  <variable name="gamma_4_5_2" index="20" value="-0"/>
  <variable name="gamma_4_4_0" index="21" value="0"/>
  <variable name="gamma_4_4_1" index="22" value="-0"/>
  <variable name="gamma_4_4_2" index="23" value="0"/>
  <variable name="gamma_4_3_0" index="24" value="0"/>
  <variable name="gamma_4_3_1" index="25" value="0"/>
  <variable name="gamma_4_3_2" index="26" value="-0"/>
  <variable name="gamma_4_2_0" index="27" value="0"/>
  <variable name="gamma_4_2_1" index="28" value="-0"/>
  <variable name="gamma_4_2_2" index="29" value="0"/>
  <variable name="gamma_4_1_0" index="30" value="-0"/>
  <variable name="gamma_4_1_1" index="31" value="0"/>
  <variable name="gamma_4_1_2" index="32" value="0"/>
  <variable name="gamma_4_0_0" index="33" value="-0"/>
  <variable name="gamma_4_0_1" index="34" value="0"/>
  <variable name="gamma_4_0_2" index="35" value="0"/>
  <variable name="gamma_1_1_0" index="36" value="1"/>
  <variable name="gamma_1_1_1" index="37" value="-0"/>
  <variable name="gamma_1_0_0" index="38" value="-0"/>
  <variable name="gamma_1_0_1" index="39" value="0"/>
  <variable name="gamma_0_1_0" index="40" value="-0"/>
  <variable name="gamma_0_1_1" index="41" value="-0"/>
  <variable name="gamma_0_0_0" index="42" value="-0"/>
  <variable name="gamma_0_0_1" index="43" value="0"/>
  <variable name="gamma_3_5_0" index="44" value="-0"/>
  <variable name="gamma_3_5_1" index="45" value="-0"/>
  <variable name="gamma_3_5_2" index="46" value="-0"/>
  <variable name="gamma_3_4_0" index="47" value="-0"/>
  <variable name="gamma_3_4_1" index="48" value="-0"/>
  <variable name="gamma_3_4_2" index="49" value="0"/>
  <variable name="gamma_3_3_0" index="50" value="-0"/>
  <variable name="gamma_3_3_1" index="51" value="-0"/>
  <variable name="gamma_3_3_2" index="52" value="-0"/>
  <variable name="gamma_3_2_0" index="53" value="-0"/>
  <variable name="gamma_3_2_1" index="54" value="-0"/>
  <variable name="gamma_3_2_2" index="55" value="0"/>
  <variable name="gamma_3_1_0" index="56" value="-0"/>
  <variable name="gamma_3_1_1" index="57" value="-0"/>
  <variable name="gamma_3_1_2" index="58" value="0"/>
  <variable name="gamma_3_0_0" index="59" value="-0"/>
  <variable name="gamma_3_0_1" index="60" value="-0"/>
  <variable name="gamma_3_0_2" index="61" value="0"/>
  <variable name="a_0" index="62" value="1"/>
  <variable name="a_1" index="63" value="1"/>
  <variable name="a_2" index="64" value="1"/>
  <variable name="a_3" index="65" value="1"/>
  <variable name="a_4" index="66" value="1"/>
  <variable name="s_2_5" index="67" value="-0"/>
  <variable name="s_2_4" index="68" value="-0"/>
  <variable name="s_2_3" index="69" value="0"/>
  <variable name="s_2_2" index="70" value="1"/>
  <variable name="s_2_1" index="71" value="-0"/>
  <variable name="s_2_0" index="72" value="-0"/>
  <variable name="s_4_5" index="73" value="1"/>
  <variable name="s_4_4" index="74" value="-0"/>
  <variable name="s_4_3" index="75" value="-0"/>
  <variable name="s_4_2" index="76" value="-0"/>
  <variable name="s_4_1" index="77" value="-0"/>
  <variable name="s_4_0" index="78" value="-0"/>
  <variable name="s_1_1" index="79" value="1"/>
  <variable name="s_1_0" index="80" value="-0"/>
  <variable name="s_0_1" index="81" value="-0"/>
  <variable name="s_0_0" index="82" value="1"/>
  <variable name="s_3_5" index="83" value="-0"/>
  <variable name="s_3_4" index="84" value="-0"/>
  <variable name="s_3_3" index="85" value="-0"/>
  <variable name="s_3_2" index="86" value="1"/>
  <variable name="s_3_1" index="87" value="-0"/>
  <variable name="s_3_0" index="88" value="-0"/>
  <variable name="g_0" index="89" value="-0.11166666666666669"/>
  <variable name="g_1" index="90" value="0.75033333333333341"/>
  <variable name="g_2" index="91" value="-1"/>
  <variable name="g_3" index="92" value="-1"/>
  <variable name="g_4" index="93" value="-1"/>
 </variables>
</CPLEXSolution>
